p edge 96 1368
e 1 14 7
e 1 27 1
e 1 40 1
e 1 53 3
e 1 66 1
e 1 79 10
e 1 92 9
e 1 2 3
e 1 3 7
e 1 4 9
e 1 5 6
e 1 6 3
e 1 7 8
e 1 8 3
e 1 9 1
e 1 10 8
e 1 11 1
e 1 12 4
e 1 13 4
e 1 25 1
e 1 37 4
e 1 49 2
e 1 61 1
e 1 73 1
e 1 85 9
e 2 15 6
e 2 28 4
e 2 41 8
e 2 54 7
e 2 67 7
e 2 80 5
e 2 93 6
e 2 13 5
e 2 3 10
e 2 4 5
e 2 5 7
e 2 6 10
e 2 7 8
e 2 8 8
e 2 9 8
e 2 10 1
e 2 11 5
e 2 12 4
e 2 14 9
e 2 26 5
e 2 38 1
e 2 50 3
e 2 62 8
e 2 74 5
e 2 86 5
e 3 16 10
e 3 29 2
e 3 42 8
e 3 55 9
e 3 68 8
e 3 81 9
e 3 94 7
e 3 14 3
e 3 25 2
e 3 4 1
e 3 5 8
e 3 6 9
e 3 7 8
e 3 8 8
e 3 9 1
e 3 10 6
e 3 11 8
e 3 12 3
e 3 15 10
e 3 27 6
e 3 39 8
e 3 51 10
e 3 63 1
e 3 75 9
e 3 87 3
e 4 17 6
e 4 30 6
e 4 43 10
e 4 56 2
e 4 69 1
e 4 82 3
e 4 95 4
e 4 15 9
e 4 26 9
e 4 37 7
e 4 5 10
e 4 6 7
e 4 7 6
e 4 8 6
e 4 9 10
e 4 10 5
e 4 11 4
e 4 12 10
e 4 16 2
e 4 28 10
e 4 40 9
e 4 52 4
e 4 64 7
e 4 76 2
e 4 88 4
e 5 18 7
e 5 31 6
e 5 44 9
e 5 57 3
e 5 70 7
e 5 83 1
e 5 96 6
e 5 16 8
e 5 27 7
e 5 38 7
e 5 49 3
e 5 6 2
e 5 7 10
e 5 8 5
e 5 9 1
e 5 10 2
e 5 11 7
e 5 12 3
e 5 17 7
e 5 29 8
e 5 41 5
e 5 53 10
e 5 65 7
e 5 77 3
e 5 89 9
e 6 19 10
e 6 32 9
e 6 45 3
e 6 58 8
e 6 71 1
e 6 84 4
e 6 17 1
e 6 28 9
e 6 39 9
e 6 50 8
e 6 61 9
e 6 7 7
e 6 8 6
e 6 9 7
e 6 10 3
e 6 11 8
e 6 12 2
e 6 18 9
e 6 30 5
e 6 42 8
e 6 54 4
e 6 66 10
e 6 78 10
e 6 90 4
e 7 20 1
e 7 33 5
e 7 46 9
e 7 59 10
e 7 72 4
e 7 18 1
e 7 29 10
e 7 40 1
e 7 51 2
e 7 62 8
e 7 73 9
e 7 8 5
e 7 9 9
e 7 10 10
e 7 11 9
e 7 12 4
e 7 19 1
e 7 31 2
e 7 43 10
e 7 55 8
e 7 67 10
e 7 79 1
e 7 91 3
e 8 21 3
e 8 34 3
e 8 47 5
e 8 60 5
e 8 19 1
e 8 30 2
e 8 41 3
e 8 52 3
e 8 63 4
e 8 74 7
e 8 85 4
e 8 9 10
e 8 10 6
e 8 11 3
e 8 12 3
e 8 20 3
e 8 32 4
e 8 44 7
e 8 56 5
e 8 68 2
e 8 80 5
e 8 92 9
e 9 22 1
e 9 35 5
e 9 48 6
e 9 20 2
e 9 31 6
e 9 42 2
e 9 53 3
e 9 64 4
e 9 75 1
e 9 86 4
e 9 10 10
e 9 11 10
e 9 12 8
e 9 21 5
e 9 33 1
e 9 45 10
e 9 57 10
e 9 69 6
e 9 81 6
e 9 93 10
e 10 23 4
e 10 36 4
e 10 21 5
e 10 32 9
e 10 43 1
e 10 54 5
e 10 65 8
e 10 76 1
e 10 87 10
e 10 11 3
e 10 12 1
e 10 22 3
e 10 34 6
e 10 46 2
e 10 58 8
e 10 70 1
e 10 82 7
e 10 94 10
e 11 24 9
e 11 22 1
e 11 33 3
e 11 44 6
e 11 55 2
e 11 66 7
e 11 77 1
e 11 88 10
e 11 12 7
e 11 23 9
e 11 35 6
e 11 47 8
e 11 59 5
e 11 71 5
e 11 83 9
e 11 95 6
e 12 23 10
e 12 34 6
e 12 45 10
e 12 56 9
e 12 67 5
e 12 78 3
e 12 89 9
e 12 24 9
e 12 36 5
e 12 48 5
e 12 60 5
e 12 72 1
e 12 84 1
e 12 96 4
e 13 26 10
e 13 39 9
e 13 52 4
e 13 65 5
e 13 78 3
e 13 91 7
e 13 14 3
e 13 15 8
e 13 16 4
e 13 17 3
e 13 18 9
e 13 19 1
e 13 20 4
e 13 21 8
e 13 22 5
e 13 23 2
e 13 24 2
e 13 25 7
e 13 37 3
e 13 49 8
e 13 61 3
e 13 73 5
e 13 85 8
e 14 27 3
e 14 40 10
e 14 53 8
e 14 66 2
e 14 79 7
e 14 92 5
e 14 25 9
e 14 15 5
e 14 16 10
e 14 17 2
e 14 18 6
e 14 19 3
e 14 20 5
e 14 21 1
e 14 22 3
e 14 23 1
e 14 24 9
e 14 26 1
e 14 38 8
e 14 50 7
e 14 62 5
e 14 74 3
e 14 86 1
e 15 28 9
e 15 41 9
e 15 54 3
e 15 67 8
e 15 80 1
e 15 93 1
e 15 26 8
e 15 37 1
e 15 16 7
e 15 17 7
e 15 18 6
e 15 19 5
e 15 20 9
e 15 21 3
e 15 22 7
e 15 23 2
e 15 24 4
e 15 27 1
e 15 39 2
e 15 51 9
e 15 63 6
e 15 75 4
e 15 87 7
e 16 29 7
e 16 42 4
e 16 55 6
e 16 68 2
e 16 81 7
e 16 94 2
e 16 27 2
e 16 38 5
e 16 49 10
e 16 17 8
e 16 18 1
e 16 19 10
e 16 20 4
e 16 21 4
e 16 22 3
e 16 23 6
e 16 24 9
e 16 28 8
e 16 40 9
e 16 52 8
e 16 64 10
e 16 76 8
e 16 88 8
e 17 30 10
e 17 43 9
e 17 56 10
e 17 69 1
e 17 82 7
e 17 95 7
e 17 28 10
e 17 39 5
e 17 50 4
e 17 61 4
e 17 18 7
e 17 19 6
e 17 20 7
e 17 21 9
e 17 22 6
e 17 23 4
e 17 24 2
e 17 29 5
e 17 41 1
e 17 53 1
e 17 65 5
e 17 77 9
e 17 89 6
e 18 31 3
e 18 44 7
e 18 57 7
e 18 70 7
e 18 83 7
e 18 96 7
e 18 29 9
e 18 40 2
e 18 51 9
e 18 62 2
e 18 73 5
e 18 19 8
e 18 20 10
e 18 21 9
e 18 22 8
e 18 23 7
e 18 24 3
e 18 30 8
e 18 42 9
e 18 54 9
e 18 66 5
e 18 78 4
e 18 90 3
e 19 32 5
e 19 45 1
e 19 58 3
e 19 71 2
e 19 84 6
e 19 30 4
e 19 41 7
e 19 52 10
e 19 63 5
e 19 74 3
e 19 85 6
e 19 20 2
e 19 21 9
e 19 22 2
e 19 23 6
e 19 24 8
e 19 31 7
e 19 43 5
e 19 55 5
e 19 67 7
e 19 79 6
e 19 91 8
e 20 33 5
e 20 46 8
e 20 59 2
e 20 72 10
e 20 31 4
e 20 42 8
e 20 53 5
e 20 64 5
e 20 75 7
e 20 86 2
e 20 21 9
e 20 22 8
e 20 23 1
e 20 24 7
e 20 32 1
e 20 44 7
e 20 56 3
e 20 68 10
e 20 80 3
e 20 92 1
e 21 34 3
e 21 47 1
e 21 60 1
e 21 32 5
e 21 43 3
e 21 54 6
e 21 65 5
e 21 76 8
e 21 87 5
e 21 22 1
e 21 23 1
e 21 24 2
e 21 33 1
e 21 45 6
e 21 57 3
e 21 69 10
e 21 81 3
e 21 93 6
e 22 35 5
e 22 48 1
e 22 33 3
e 22 44 1
e 22 55 10
e 22 66 8
e 22 77 4
e 22 88 5
e 22 23 9
e 22 24 7
e 22 34 5
e 22 46 3
e 22 58 3
e 22 70 9
e 22 82 3
e 22 94 8
e 23 36 3
e 23 34 1
e 23 45 2
e 23 56 3
e 23 67 10
e 23 78 7
e 23 89 6
e 23 24 1
e 23 35 3
e 23 47 7
e 23 59 9
e 23 71 1
e 23 83 4
e 23 95 5
e 24 35 3
e 24 46 5
e 24 57 5
e 24 68 1
e 24 79 5
e 24 90 7
e 24 36 4
e 24 48 9
e 24 60 6
e 24 72 8
e 24 84 1
e 24 96 1
e 25 38 10
e 25 51 3
e 25 64 8
e 25 77 8
e 25 90 8
e 25 26 2
e 25 27 8
e 25 28 6
e 25 29 3
e 25 30 7
e 25 31 4
e 25 32 6
e 25 33 4
e 25 34 4
e 25 35 3
e 25 36 10
e 25 37 9
e 25 49 9
e 25 61 10
e 25 73 1
e 25 85 5
e 26 39 3
e 26 52 2
e 26 65 3
e 26 78 2
e 26 91 3
e 26 37 9
e 26 27 6
e 26 28 9
e 26 29 2
e 26 30 4
e 26 31 6
e 26 32 3
e 26 33 1
e 26 34 3
e 26 35 1
e 26 36 4
e 26 38 8
e 26 50 10
e 26 62 6
e 26 74 8
e 26 86 6
e 27 40 5
e 27 53 7
e 27 66 10
e 27 79 9
e 27 92 7
e 27 38 6
e 27 49 6
e 27 28 3
e 27 29 6
e 27 30 5
e 27 31 6
e 27 32 3
e 27 33 10
e 27 34 6
e 27 35 6
e 27 36 7
e 27 39 8
e 27 51 10
e 27 63 7
e 27 75 2
e 27 87 5
e 28 41 7
e 28 54 9
e 28 67 9
e 28 80 8
e 28 93 5
e 28 39 5
e 28 50 10
e 28 61 5
e 28 29 9
e 28 30 3
e 28 31 8
e 28 32 7
e 28 33 2
e 28 34 5
e 28 35 1
e 28 36 7
e 28 40 9
e 28 52 4
e 28 64 6
e 28 76 2
e 28 88 1
e 29 42 8
e 29 55 10
e 29 68 5
e 29 81 10
e 29 94 8
e 29 40 3
e 29 51 8
e 29 62 1
e 29 73 2
e 29 30 4
e 29 31 3
e 29 32 7
e 29 33 3
e 29 34 2
e 29 35 8
e 29 36 10
e 29 41 7
e 29 53 10
e 29 65 9
e 29 77 1
e 29 89 10
e 30 43 9
e 30 56 4
e 30 69 1
e 30 82 8
e 30 95 5
e 30 41 6
e 30 52 5
e 30 63 6
e 30 74 6
e 30 85 9
e 30 31 9
e 30 32 1
e 30 33 2
e 30 34 7
e 30 35 3
e 30 36 4
e 30 42 5
e 30 54 1
e 30 66 2
e 30 78 4
e 30 90 2
e 31 44 8
e 31 57 8
e 31 70 6
e 31 83 5
e 31 96 8
e 31 42 2
e 31 53 2
e 31 64 5
e 31 75 4
e 31 86 9
e 31 32 10
e 31 33 4
e 31 34 8
e 31 35 6
e 31 36 10
e 31 43 10
e 31 55 1
e 31 67 2
e 31 79 6
e 31 91 8
e 32 45 2
e 32 58 7
e 32 71 6
e 32 84 8
e 32 43 4
e 32 54 2
e 32 65 1
e 32 76 8
e 32 87 9
e 32 33 9
e 32 34 7
e 32 35 3
e 32 36 6
e 32 44 1
e 32 56 5
e 32 68 10
e 32 80 10
e 32 92 2
e 33 46 10
e 33 59 8
e 33 72 7
e 33 44 2
e 33 55 6
e 33 66 3
e 33 77 1
e 33 88 2
e 33 34 1
e 33 35 2
e 33 36 4
e 33 45 5
e 33 57 1
e 33 69 4
e 33 81 4
e 33 93 4
e 34 47 8
e 34 60 5
e 34 45 1
e 34 56 9
e 34 67 5
e 34 78 1
e 34 89 1
e 34 35 9
e 34 36 3
e 34 46 6
e 34 58 9
e 34 70 7
e 34 82 5
e 34 94 6
e 35 48 8
e 35 46 1
e 35 57 2
e 35 68 3
e 35 79 7
e 35 90 10
e 35 36 1
e 35 47 6
e 35 59 7
e 35 71 10
e 35 83 1
e 35 95 3
e 36 47 3
e 36 58 1
e 36 69 2
e 36 80 4
e 36 91 3
e 36 48 6
e 36 60 5
e 36 72 5
e 36 84 2
e 36 96 5
e 37 50 7
e 37 63 7
e 37 76 10
e 37 89 4
e 37 38 10
e 37 39 3
e 37 40 4
e 37 41 3
e 37 42 1
e 37 43 5
e 37 44 2
e 37 45 6
e 37 46 5
e 37 47 4
e 37 48 9
e 37 49 6
e 37 61 7
e 37 73 6
e 37 85 7
e 38 51 1
e 38 64 5
e 38 77 5
e 38 90 2
e 38 49 8
e 38 39 1
e 38 40 8
e 38 41 7
e 38 42 5
e 38 43 8
e 38 44 3
e 38 45 1
e 38 46 2
e 38 47 4
e 38 48 7
e 38 50 5
e 38 62 7
e 38 74 7
e 38 86 4
e 39 52 1
e 39 65 6
e 39 78 10
e 39 91 7
e 39 50 8
e 39 61 8
e 39 40 6
e 39 41 10
e 39 42 5
e 39 43 7
e 39 44 6
e 39 45 9
e 39 46 5
e 39 47 6
e 39 48 3
e 39 51 6
e 39 63 1
e 39 75 2
e 39 87 2
e 40 53 5
e 40 66 10
e 40 79 7
e 40 92 2
e 40 51 3
e 40 62 9
e 40 73 2
e 40 41 2
e 40 42 3
e 40 43 8
e 40 44 5
e 40 45 1
e 40 46 2
e 40 47 3
e 40 48 10
e 40 52 8
e 40 64 4
e 40 76 6
e 40 88 9
e 41 54 5
e 41 67 4
e 41 80 4
e 41 93 8
e 41 52 5
e 41 63 7
e 41 74 7
e 41 85 3
e 41 42 9
e 41 43 9
e 41 44 6
e 41 45 7
e 41 46 6
e 41 47 3
e 41 48 10
e 41 53 7
e 41 65 1
e 41 77 6
e 41 89 7
e 42 55 2
e 42 68 4
e 42 81 7
e 42 94 1
e 42 53 7
e 42 64 5
e 42 75 10
e 42 86 1
e 42 43 2
e 42 44 4
e 42 45 4
e 42 46 10
e 42 47 4
e 42 48 9
e 42 54 6
e 42 66 5
e 42 78 5
e 42 90 1
e 43 56 9
e 43 69 8
e 43 82 2
e 43 95 1
e 43 54 9
e 43 65 5
e 43 76 9
e 43 87 2
e 43 44 7
e 43 45 10
e 43 46 3
e 43 47 9
e 43 48 3
e 43 55 8
e 43 67 1
e 43 79 1
e 43 91 7
e 44 57 7
e 44 70 4
e 44 83 6
e 44 96 8
e 44 55 5
e 44 66 3
e 44 77 8
e 44 88 2
e 44 45 2
e 44 46 7
e 44 47 5
e 44 48 3
e 44 56 2
e 44 68 7
e 44 80 10
e 44 92 5
e 45 58 6
e 45 71 3
e 45 84 8
e 45 56 3
e 45 67 8
e 45 78 7
e 45 89 7
e 45 46 1
e 45 47 9
e 45 48 10
e 45 57 5
e 45 69 1
e 45 81 10
e 45 93 5
e 46 59 1
e 46 72 4
e 46 57 9
e 46 68 10
e 46 79 10
e 46 90 1
e 46 47 10
e 46 48 2
e 46 58 10
e 46 70 9
e 46 82 9
e 46 94 9
e 47 60 10
e 47 58 9
e 47 69 9
e 47 80 10
e 47 91 4
e 47 48 1
e 47 59 10
e 47 71 4
e 47 83 5
e 47 95 8
e 48 59 4
e 48 70 7
e 48 81 4
e 48 92 6
e 48 60 6
e 48 72 1
e 48 84 2
e 48 96 6
e 49 62 8
e 49 75 4
e 49 88 5
e 49 50 2
e 49 51 10
e 49 52 7
e 49 53 1
e 49 54 1
e 49 55 3
e 49 56 4
e 49 57 10
e 49 58 9
e 49 59 1
e 49 60 7
e 49 61 8
e 49 73 8
e 49 85 5
e 50 63 6
e 50 76 3
e 50 89 3
e 50 61 5
e 50 51 4
e 50 52 5
e 50 53 1
e 50 54 9
e 50 55 5
e 50 56 7
e 50 57 10
e 50 58 7
e 50 59 10
e 50 60 9
e 50 62 2
e 50 74 4
e 50 86 6
e 51 64 3
e 51 77 4
e 51 90 10
e 51 62 3
e 51 73 3
e 51 52 1
e 51 53 4
e 51 54 3
e 51 55 6
e 51 56 5
e 51 57 5
e 51 58 1
e 51 59 7
e 51 60 3
e 51 63 2
e 51 75 5
e 51 87 10
e 52 65 10
e 52 78 6
e 52 91 8
e 52 63 6
e 52 74 3
e 52 85 2
e 52 53 1
e 52 54 2
e 52 55 2
e 52 56 6
e 52 57 5
e 52 58 2
e 52 59 4
e 52 60 7
e 52 64 4
e 52 76 7
e 52 88 1
e 53 66 9
e 53 79 5
e 53 92 8
e 53 64 8
e 53 75 8
e 53 86 6
e 53 54 10
e 53 55 8
e 53 56 10
e 53 57 2
e 53 58 10
e 53 59 1
e 53 60 9
e 53 65 5
e 53 77 7
e 53 89 2
e 54 67 6
e 54 80 7
e 54 93 10
e 54 65 7
e 54 76 4
e 54 87 1
e 54 55 7
e 54 56 3
e 54 57 7
e 54 58 10
e 54 59 2
e 54 60 9
e 54 66 6
e 54 78 9
e 54 90 8
e 55 68 5
e 55 81 3
e 55 94 4
e 55 66 10
e 55 77 2
e 55 88 10
e 55 56 1
e 55 57 7
e 55 58 7
e 55 59 9
e 55 60 9
e 55 67 2
e 55 79 1
e 55 91 8
e 56 69 7
e 56 82 3
e 56 95 2
e 56 67 8
e 56 78 3
e 56 89 9
e 56 57 9
e 56 58 8
e 56 59 9
e 56 60 5
e 56 68 10
e 56 80 9
e 56 92 4
e 57 70 3
e 57 83 4
e 57 96 2
e 57 68 8
e 57 79 8
e 57 90 9
e 57 58 6
e 57 59 9
e 57 60 10
e 57 69 8
e 57 81 5
e 57 93 4
e 58 71 5
e 58 84 2
e 58 69 7
e 58 80 8
e 58 91 4
e 58 59 9
e 58 60 1
e 58 70 3
e 58 82 6
e 58 94 7
e 59 72 6
e 59 70 6
e 59 81 6
e 59 92 4
e 59 60 7
e 59 71 4
e 59 83 10
e 59 95 3
e 60 71 1
e 60 82 5
e 60 93 10
e 60 72 3
e 60 84 2
e 60 96 2
e 61 74 10
e 61 87 2
e 61 62 6
e 61 63 7
e 61 64 3
e 61 65 8
e 61 66 3
e 61 67 10
e 61 68 8
e 61 69 8
e 61 70 7
e 61 71 3
e 61 72 4
e 61 73 6
e 61 85 3
e 62 75 4
e 62 88 5
e 62 73 9
e 62 63 9
e 62 64 4
e 62 65 3
e 62 66 4
e 62 67 3
e 62 68 8
e 62 69 5
e 62 70 10
e 62 71 10
e 62 72 7
e 62 74 2
e 62 86 1
e 63 76 7
e 63 89 7
e 63 74 6
e 63 85 6
e 63 64 6
e 63 65 5
e 63 66 5
e 63 67 6
e 63 68 6
e 63 69 8
e 63 70 4
e 63 71 2
e 63 72 1
e 63 75 1
e 63 87 1
e 64 77 10
e 64 90 9
e 64 75 10
e 64 86 7
e 64 65 10
e 64 66 2
e 64 67 2
e 64 68 4
e 64 69 5
e 64 70 4
e 64 71 2
e 64 72 7
e 64 76 5
e 64 88 10
e 65 78 2
e 65 91 2
e 65 76 2
e 65 87 10
e 65 66 2
e 65 67 2
e 65 68 3
e 65 69 4
e 65 70 4
e 65 71 6
e 65 72 8
e 65 77 6
e 65 89 7
e 66 79 7
e 66 92 6
e 66 77 3
e 66 88 10
e 66 67 4
e 66 68 7
e 66 69 5
e 66 70 3
e 66 71 4
e 66 72 3
e 66 78 1
e 66 90 1
e 67 80 6
e 67 93 3
e 67 78 9
e 67 89 7
e 67 68 5
e 67 69 4
e 67 70 10
e 67 71 3
e 67 72 10
e 67 79 6
e 67 91 9
e 68 81 6
e 68 94 8
e 68 79 10
e 68 90 2
e 68 69 6
e 68 70 2
e 68 71 8
e 68 72 9
e 68 80 2
e 68 92 1
e 69 82 1
e 69 95 3
e 69 80 6
e 69 91 2
e 69 70 4
e 69 71 3
e 69 72 4
e 69 81 8
e 69 93 1
e 70 83 7
e 70 96 1
e 70 81 9
e 70 92 5
e 70 71 3
e 70 72 10
e 70 82 3
e 70 94 2
e 71 84 4
e 71 82 8
e 71 93 9
e 71 72 5
e 71 83 1
e 71 95 4
e 72 83 1
e 72 94 10
e 72 84 9
e 72 96 3
e 73 86 3
e 73 74 6
e 73 75 3
e 73 76 9
e 73 77 6
e 73 78 3
e 73 79 3
e 73 80 8
e 73 81 7
e 73 82 5
e 73 83 1
e 73 84 3
e 73 85 1
e 74 87 5
e 74 85 7
e 74 75 2
e 74 76 5
e 74 77 7
e 74 78 6
e 74 79 8
e 74 80 4
e 74 81 6
e 74 82 9
e 74 83 6
e 74 84 4
e 74 86 1
e 75 88 8
e 75 86 9
e 75 76 7
e 75 77 7
e 75 78 10
e 75 79 9
e 75 80 6
e 75 81 4
e 75 82 10
e 75 83 8
e 75 84 9
e 75 87 7
e 76 89 9
e 76 87 2
e 76 77 5
e 76 78 1
e 76 79 10
e 76 80 8
e 76 81 8
e 76 82 9
e 76 83 1
e 76 84 4
e 76 88 9
e 77 90 6
e 77 88 6
e 77 78 5
e 77 79 2
e 77 80 8
e 77 81 9
e 77 82 1
e 77 83 9
e 77 84 6
e 77 89 7
e 78 91 5
e 78 89 10
e 78 79 10
e 78 80 2
e 78 81 7
e 78 82 3
e 78 83 9
e 78 84 4
e 78 90 7
e 79 92 7
e 79 90 4
e 79 80 10
e 79 81 4
e 79 82 4
e 79 83 10
e 79 84 5
e 79 91 8
e 80 93 7
e 80 91 4
e 80 81 2
e 80 82 10
e 80 83 4
e 80 84 6
e 80 92 5
e 81 94 2
e 81 92 8
e 81 82 4
e 81 83 10
e 81 84 5
e 81 93 2
e 82 95 7
e 82 93 9
e 82 83 6
e 82 84 10
e 82 94 6
e 83 96 7
e 83 94 7
e 83 84 1
e 83 95 8
e 84 95 10
e 84 96 2
e 85 86 5
e 85 87 8
e 85 88 8
e 85 89 6
e 85 90 4
e 85 91 8
e 85 92 8
e 85 93 10
e 85 94 10
e 85 95 6
e 85 96 1
e 86 87 9
e 86 88 10
e 86 89 10
e 86 90 6
e 86 91 3
e 86 92 5
e 86 93 8
e 86 94 10
e 86 95 1
e 86 96 4
e 87 88 9
e 87 89 6
e 87 90 8
e 87 91 8
e 87 92 4
e 87 93 3
e 87 94 4
e 87 95 9
e 87 96 10
e 88 89 5
e 88 90 3
e 88 91 10
e 88 92 10
e 88 93 9
e 88 94 3
e 88 95 5
e 88 96 5
e 89 90 7
e 89 91 5
e 89 92 4
e 89 93 2
e 89 94 5
e 89 95 2
e 89 96 3
e 90 91 3
e 90 92 4
e 90 93 1
e 90 94 9
e 90 95 10
e 90 96 3
e 91 92 4
e 91 93 2
e 91 94 2
e 91 95 1
e 91 96 2
e 92 93 8
e 92 94 6
e 92 95 4
e 92 96 5
e 93 94 7
e 93 95 9
e 93 96 9
e 94 95 3
e 94 96 7
e 95 96 2